NAME
ROWS
 N  OBJ
 G  c1
 G  c2
 G  c3
 G  c4
 G  c5
 G  c6
 G  c7
 G  c8
 G  c9
 G  c10
 G  c11
 G  c12
 G  c13
 G  c14
 G  c15
 G  c16
 G  c17
 G  c18
 G  c19
 G  c20
 G  c21
 G  c22
 G  c23
 G  c24
 G  c25
 G  c26
 G  c27
 G  c28
 G  c29
 G  c30
 G  c31
 G  c32
 G  c33
 G  c34
 G  c35
 G  c36
 G  c37
 G  c38
 G  c39
 G  c40
 G  c41
 G  c42
 G  c43
 G  c44
 G  c45
 G  c46
 G  c47
 G  c48
 G  c49
 G  c50
 G  c51
 G  c52
 G  c53
 G  c54
 G  c55
 G  c56
 G  c57
 G  c58
 G  c59
 G  c60
 G  c61
 G  c62
 G  c63
 G  c64
 G  c65
 G  c66
 G  c67
 G  c68
 G  c69
 G  c70
COLUMNS
    MARKER    'MARKER'                 'INTORG'
    x[1]      c1        1
    x[1]      c6        1
    x[1]      c7        1
    x[1]      c23       1
    x[1]      c25       1
    x[1]      c60       1
    x[1]      c70       1
    x[1]      OBJ       1
    x[2]      c2        1
    x[2]      c7        1
    x[2]      c14       1
    x[2]      c20       1
    x[2]      c27       1
    x[2]      OBJ       1
    x[3]      c3        1
    x[3]      c18       1
    x[3]      c44       1
    x[3]      c59       1
    x[3]      c62       1
    x[3]      c63       1
    x[3]      OBJ       1
    x[4]      c4        1
    x[4]      c15       1
    x[4]      c19       1
    x[4]      c31       1
    x[4]      c45       1
    x[4]      c48       1
    x[4]      c51       1
    x[4]      OBJ       1
    x[5]      c5        1
    x[5]      c7        1
    x[5]      c8        1
    x[5]      c25       1
    x[5]      c64       1
    x[5]      OBJ       1
    x[6]      c1        1
    x[6]      c6        1
    x[6]      c9        1
    x[6]      c20       1
    x[6]      c35       1
    x[6]      c38       1
    x[6]      c57       1
    x[6]      OBJ       1
    x[7]      c1        1
    x[7]      c2        1
    x[7]      c5        1
    x[7]      c7        1
    x[7]      c19       1
    x[7]      c21       1
    x[7]      c30       1
    x[7]      c34       1
    x[7]      c44       1
    x[7]      c49       1
    x[7]      OBJ       1
    x[8]      c5        1
    x[8]      c8        1
    x[8]      c17       1
    x[8]      c25       1
    x[8]      c38       1
    x[8]      c46       1
    x[8]      OBJ       1
    x[9]      c6        1
    x[9]      c9        1
    x[9]      c10       1
    x[9]      c21       1
    x[9]      c30       1
    x[9]      c31       1
    x[9]      c33       1
    x[9]      c42       1
    x[9]      c43       1
    x[9]      c53       1
    x[9]      c58       1
    x[9]      OBJ       1
    x[10]     c9        1
    x[10]     c10       1
    x[10]     c16       1
    x[10]     c18       1
    x[10]     c25       1
    x[10]     c26       1
    x[10]     c28       1
    x[10]     c50       1
    x[10]     c52       1
    x[10]     c57       1
    x[10]     c62       1
    x[10]     OBJ       1
    x[11]     c11       1
    x[11]     c20       1
    x[11]     c23       1
    x[11]     c37       1
    x[11]     c38       1
    x[11]     c48       1
    x[11]     c54       1
    x[11]     OBJ       1
    x[12]     c12       1
    x[12]     c42       1
    x[12]     OBJ       1
    x[13]     c13       1
    x[13]     c14       1
    x[13]     c18       1
    x[13]     c25       1
    x[13]     c46       1
    x[13]     c54       1
    x[13]     c60       1
    x[13]     c62       1
    x[13]     OBJ       1
    x[14]     c2        1
    x[14]     c13       1
    x[14]     c14       1
    x[14]     c20       1
    x[14]     c60       1
    x[14]     OBJ       1
    x[15]     c4        1
    x[15]     c15       1
    x[15]     c16       1
    x[15]     c21       1
    x[15]     c34       1
    x[15]     c42       1
    x[15]     c48       1
    x[15]     c54       1
    x[15]     c65       1
    x[15]     OBJ       1
    x[16]     c10       1
    x[16]     c15       1
    x[16]     c16       1
    x[16]     c25       1
    x[16]     c31       1
    x[16]     c42       1
    x[16]     c48       1
    x[16]     OBJ       1
    x[17]     c8        1
    x[17]     c17       1
    x[17]     c18       1
    x[17]     c21       1
    x[17]     c26       1
    x[17]     c27       1
    x[17]     c37       1
    x[17]     c60       1
    x[17]     OBJ       1
    x[18]     c3        1
    x[18]     c10       1
    x[18]     c13       1
    x[18]     c17       1
    x[18]     c18       1
    x[18]     c25       1
    x[18]     c35       1
    x[18]     c38       1
    x[18]     c55       1
    x[18]     c62       1
    x[18]     OBJ       1
    x[19]     c4        1
    x[19]     c7        1
    x[19]     c19       1
    x[19]     c21       1
    x[19]     c25       1
    x[19]     c27       1
    x[19]     c34       1
    x[19]     c45       1
    x[19]     c50       1
    x[19]     c67       1
    x[19]     c69       1
    x[19]     OBJ       1
    x[20]     c2        1
    x[20]     c6        1
    x[20]     c11       1
    x[20]     c14       1
    x[20]     c20       1
    x[20]     c31       1
    x[20]     c44       1
    x[20]     OBJ       1
    x[21]     c7        1
    x[21]     c9        1
    x[21]     c15       1
    x[21]     c17       1
    x[21]     c19       1
    x[21]     c21       1
    x[21]     c29       1
    x[21]     c34       1
    x[21]     c35       1
    x[21]     c36       1
    x[21]     c41       1
    x[21]     c42       1
    x[21]     c48       1
    x[21]     c51       1
    x[21]     c55       1
    x[21]     OBJ       1
    x[22]     c22       1
    x[22]     c26       1
    x[22]     c33       1
    x[22]     c40       1
    x[22]     c49       1
    x[22]     c52       1
    x[22]     OBJ       1
    x[23]     c1        1
    x[23]     c11       1
    x[23]     c23       1
    x[23]     c39       1
    x[23]     c41       1
    x[23]     c44       1
    x[23]     c53       1
    x[23]     OBJ       1
    x[24]     c24       1
    x[24]     c26       1
    x[24]     c27       1
    x[24]     c52       1
    x[24]     c53       1
    x[24]     c69       1
    x[24]     c70       1
    x[24]     OBJ       1
    x[25]     c1        1
    x[25]     c5        1
    x[25]     c8        1
    x[25]     c10       1
    x[25]     c13       1
    x[25]     c16       1
    x[25]     c18       1
    x[25]     c19       1
    x[25]     c25       1
    x[25]     c27       1
    x[25]     c38       1
    x[25]     c68       1
    x[25]     OBJ       1
    x[26]     c10       1
    x[26]     c17       1
    x[26]     c22       1
    x[26]     c24       1
    x[26]     c26       1
    x[26]     c41       1
    x[26]     c43       1
    x[26]     c56       1
    x[26]     c61       1
    x[26]     c66       1
    x[26]     c67       1
    x[26]     OBJ       1
    x[27]     c2        1
    x[27]     c17       1
    x[27]     c19       1
    x[27]     c24       1
    x[27]     c25       1
    x[27]     c27       1
    x[27]     c50       1
    x[27]     c63       1
    x[27]     c67       1
    x[27]     c69       1
    x[27]     OBJ       1
    x[28]     c10       1
    x[28]     c28       1
    x[28]     c54       1
    x[28]     c62       1
    x[28]     OBJ       1
    x[29]     c21       1
    x[29]     c29       1
    x[29]     c31       1
    x[29]     c39       1
    x[29]     c48       1
    x[29]     c51       1
    x[29]     c54       1
    x[29]     c60       1
    x[29]     c62       1
    x[29]     c66       1
    x[29]     OBJ       1
    x[30]     c7        1
    x[30]     c9        1
    x[30]     c30       1
    x[30]     c31       1
    x[30]     c33       1
    x[30]     c38       1
    x[30]     c54       1
    x[30]     c57       1
    x[30]     c59       1
    x[30]     OBJ       1
    x[31]     c4        1
    x[31]     c9        1
    x[31]     c16       1
    x[31]     c20       1
    x[31]     c29       1
    x[31]     c30       1
    x[31]     c31       1
    x[31]     c34       1
    x[31]     c38       1
    x[31]     c40       1
    x[31]     c68       1
    x[31]     OBJ       1
    x[32]     c32       1
    x[32]     c37       1
    x[32]     c45       1
    x[32]     c63       1
    x[32]     c68       1
    x[32]     c70       1
    x[32]     OBJ       1
    x[33]     c9        1
    x[33]     c22       1
    x[33]     c30       1
    x[33]     c33       1
    x[33]     c47       1
    x[33]     c54       1
    x[33]     c64       1
    x[33]     c69       1
    x[33]     OBJ       1
    x[34]     c7        1
    x[34]     c15       1
    x[34]     c19       1
    x[34]     c21       1
    x[34]     c31       1
    x[34]     c34       1
    x[34]     c43       1
    x[34]     c61       1
    x[34]     c64       1
    x[34]     OBJ       1
    x[35]     c6        1
    x[35]     c18       1
    x[35]     c21       1
    x[35]     c35       1
    x[35]     c44       1
    x[35]     c46       1
    x[35]     c70       1
    x[35]     OBJ       1
    x[36]     c21       1
    x[36]     c36       1
    x[36]     c37       1
    x[36]     c42       1
    x[36]     c45       1
    x[36]     c52       1
    x[36]     c57       1
    x[36]     c68       1
    x[36]     OBJ       1
    x[37]     c11       1
    x[37]     c17       1
    x[37]     c32       1
    x[37]     c36       1
    x[37]     c37       1
    x[37]     c43       1
    x[37]     c55       1
    x[37]     c57       1
    x[37]     c60       1
    x[37]     c62       1
    x[37]     OBJ       1
    x[38]     c6        1
    x[38]     c8        1
    x[38]     c11       1
    x[38]     c18       1
    x[38]     c25       1
    x[38]     c30       1
    x[38]     c31       1
    x[38]     c38       1
    x[38]     c56       1
    x[38]     c69       1
    x[38]     c70       1
    x[38]     OBJ       1
    x[39]     c23       1
    x[39]     c29       1
    x[39]     c39       1
    x[39]     c46       1
    x[39]     c64       1
    x[39]     OBJ       1
    x[40]     c22       1
    x[40]     c31       1
    x[40]     c40       1
    x[40]     c44       1
    x[40]     c50       1
    x[40]     c65       1
    x[40]     c66       1
    x[40]     c67       1
    x[40]     OBJ       1
    x[41]     c21       1
    x[41]     c23       1
    x[41]     c26       1
    x[41]     c41       1
    x[41]     c46       1
    x[41]     OBJ       1
    x[42]     c9        1
    x[42]     c12       1
    x[42]     c15       1
    x[42]     c16       1
    x[42]     c21       1
    x[42]     c36       1
    x[42]     c42       1
    x[42]     c63       1
    x[42]     OBJ       1
    x[43]     c9        1
    x[43]     c26       1
    x[43]     c34       1
    x[43]     c37       1
    x[43]     c43       1
    x[43]     c51       1
    x[43]     c52       1
    x[43]     OBJ       1
    x[44]     c3        1
    x[44]     c7        1
    x[44]     c20       1
    x[44]     c23       1
    x[44]     c35       1
    x[44]     c40       1
    x[44]     c44       1
    x[44]     c61       1
    x[44]     c65       1
    x[44]     OBJ       1
    x[45]     c4        1
    x[45]     c19       1
    x[45]     c32       1
    x[45]     c36       1
    x[45]     c45       1
    x[45]     c53       1
    x[45]     OBJ       1
    x[46]     c8        1
    x[46]     c13       1
    x[46]     c35       1
    x[46]     c39       1
    x[46]     c41       1
    x[46]     c46       1
    x[46]     c68       1
    x[46]     c70       1
    x[46]     OBJ       1
    x[47]     c33       1
    x[47]     c47       1
    x[47]     c58       1
    x[47]     OBJ       1
    x[48]     c4        1
    x[48]     c11       1
    x[48]     c15       1
    x[48]     c16       1
    x[48]     c21       1
    x[48]     c29       1
    x[48]     c48       1
    x[48]     c52       1
    x[48]     c54       1
    x[48]     c58       1
    x[48]     c65       1
    x[48]     c68       1
    x[48]     OBJ       1
    x[49]     c7        1
    x[49]     c22       1
    x[49]     c49       1
    x[49]     c60       1
    x[49]     c64       1
    x[49]     OBJ       1
    x[50]     c10       1
    x[50]     c19       1
    x[50]     c27       1
    x[50]     c40       1
    x[50]     c50       1
    x[50]     c55       1
    x[50]     c58       1
    x[50]     c62       1
    x[50]     c66       1
    x[50]     OBJ       1
    x[51]     c4        1
    x[51]     c21       1
    x[51]     c29       1
    x[51]     c43       1
    x[51]     c51       1
    x[51]     c52       1
    x[51]     c59       1
    x[51]     OBJ       1
    x[52]     c10       1
    x[52]     c22       1
    x[52]     c24       1
    x[52]     c36       1
    x[52]     c43       1
    x[52]     c48       1
    x[52]     c51       1
    x[52]     c52       1
    x[52]     c65       1
    x[52]     OBJ       1
    x[53]     c9        1
    x[53]     c23       1
    x[53]     c24       1
    x[53]     c45       1
    x[53]     c53       1
    x[53]     OBJ       1
    x[54]     c11       1
    x[54]     c13       1
    x[54]     c15       1
    x[54]     c28       1
    x[54]     c29       1
    x[54]     c30       1
    x[54]     c33       1
    x[54]     c48       1
    x[54]     c54       1
    x[54]     OBJ       1
    x[55]     c18       1
    x[55]     c21       1
    x[55]     c37       1
    x[55]     c50       1
    x[55]     c55       1
    x[55]     c58       1
    x[55]     OBJ       1
    x[56]     c26       1
    x[56]     c38       1
    x[56]     c56       1
    x[56]     c58       1
    x[56]     OBJ       1
    x[57]     c6        1
    x[57]     c10       1
    x[57]     c30       1
    x[57]     c36       1
    x[57]     c37       1
    x[57]     c57       1
    x[57]     c66       1
    x[57]     c68       1
    x[57]     c70       1
    x[57]     OBJ       1
    x[58]     c9        1
    x[58]     c47       1
    x[58]     c48       1
    x[58]     c50       1
    x[58]     c55       1
    x[58]     c56       1
    x[58]     c58       1
    x[58]     c66       1
    x[58]     OBJ       1
    x[59]     c3        1
    x[59]     c30       1
    x[59]     c51       1
    x[59]     c59       1
    x[59]     c70       1
    x[59]     OBJ       1
    x[60]     c1        1
    x[60]     c13       1
    x[60]     c14       1
    x[60]     c17       1
    x[60]     c29       1
    x[60]     c37       1
    x[60]     c49       1
    x[60]     c60       1
    x[60]     c63       1
    x[60]     c70       1
    x[60]     OBJ       1
    x[61]     c26       1
    x[61]     c34       1
    x[61]     c44       1
    x[61]     c61       1
    x[61]     OBJ       1
    x[62]     c3        1
    x[62]     c10       1
    x[62]     c13       1
    x[62]     c18       1
    x[62]     c28       1
    x[62]     c29       1
    x[62]     c37       1
    x[62]     c50       1
    x[62]     c62       1
    x[62]     c63       1
    x[62]     c64       1
    x[62]     c68       1
    x[62]     OBJ       1
    x[63]     c3        1
    x[63]     c27       1
    x[63]     c32       1
    x[63]     c42       1
    x[63]     c60       1
    x[63]     c62       1
    x[63]     c63       1
    x[63]     c70       1
    x[63]     OBJ       1
    x[64]     c5        1
    x[64]     c33       1
    x[64]     c34       1
    x[64]     c39       1
    x[64]     c49       1
    x[64]     c62       1
    x[64]     c64       1
    x[64]     c65       1
    x[64]     c66       1
    x[64]     c70       1
    x[64]     OBJ       1
    x[65]     c15       1
    x[65]     c40       1
    x[65]     c44       1
    x[65]     c48       1
    x[65]     c52       1
    x[65]     c64       1
    x[65]     c65       1
    x[65]     OBJ       1
    x[66]     c26       1
    x[66]     c29       1
    x[66]     c40       1
    x[66]     c50       1
    x[66]     c57       1
    x[66]     c58       1
    x[66]     c64       1
    x[66]     c66       1
    x[66]     c68       1
    x[66]     c70       1
    x[66]     OBJ       1
    x[67]     c19       1
    x[67]     c26       1
    x[67]     c27       1
    x[67]     c40       1
    x[67]     c67       1
    x[67]     OBJ       1
    x[68]     c25       1
    x[68]     c31       1
    x[68]     c32       1
    x[68]     c36       1
    x[68]     c46       1
    x[68]     c48       1
    x[68]     c57       1
    x[68]     c62       1
    x[68]     c66       1
    x[68]     c68       1
    x[68]     c70       1
    x[68]     OBJ       1
    x[69]     c19       1
    x[69]     c24       1
    x[69]     c27       1
    x[69]     c33       1
    x[69]     c38       1
    x[69]     c69       1
    x[69]     OBJ       1
    x[70]     c1        1
    x[70]     c24       1
    x[70]     c32       1
    x[70]     c35       1
    x[70]     c38       1
    x[70]     c46       1
    x[70]     c57       1
    x[70]     c59       1
    x[70]     c60       1
    x[70]     c63       1
    x[70]     c64       1
    x[70]     c66       1
    x[70]     c68       1
    x[70]     c70       1
    x[70]     OBJ       1
    MARKER    'MARKER'                 'INTEND'
RHS
    rhs       c1        1
    rhs       c2        1
    rhs       c3        1
    rhs       c4        1
    rhs       c5        1
    rhs       c6        1
    rhs       c7        1
    rhs       c8        1
    rhs       c9        1
    rhs       c10       1
    rhs       c11       1
    rhs       c12       1
    rhs       c13       1
    rhs       c14       1
    rhs       c15       1
    rhs       c16       1
    rhs       c17       1
    rhs       c18       1
    rhs       c19       1
    rhs       c20       1
    rhs       c21       1
    rhs       c22       1
    rhs       c23       1
    rhs       c24       1
    rhs       c25       1
    rhs       c26       1
    rhs       c27       1
    rhs       c28       1
    rhs       c29       1
    rhs       c30       1
    rhs       c31       1
    rhs       c32       1
    rhs       c33       1
    rhs       c34       1
    rhs       c35       1
    rhs       c36       1
    rhs       c37       1
    rhs       c38       1
    rhs       c39       1
    rhs       c40       1
    rhs       c41       1
    rhs       c42       1
    rhs       c43       1
    rhs       c44       1
    rhs       c45       1
    rhs       c46       1
    rhs       c47       1
    rhs       c48       1
    rhs       c49       1
    rhs       c50       1
    rhs       c51       1
    rhs       c52       1
    rhs       c53       1
    rhs       c54       1
    rhs       c55       1
    rhs       c56       1
    rhs       c57       1
    rhs       c58       1
    rhs       c59       1
    rhs       c60       1
    rhs       c61       1
    rhs       c62       1
    rhs       c63       1
    rhs       c64       1
    rhs       c65       1
    rhs       c66       1
    rhs       c67       1
    rhs       c68       1
    rhs       c69       1
    rhs       c70       1
RANGES
BOUNDS
 BV bounds    x[1]
 BV bounds    x[2]
 BV bounds    x[3]
 BV bounds    x[4]
 BV bounds    x[5]
 BV bounds    x[6]
 BV bounds    x[7]
 BV bounds    x[8]
 BV bounds    x[9]
 BV bounds    x[10]
 BV bounds    x[11]
 BV bounds    x[12]
 BV bounds    x[13]
 BV bounds    x[14]
 BV bounds    x[15]
 BV bounds    x[16]
 BV bounds    x[17]
 BV bounds    x[18]
 BV bounds    x[19]
 BV bounds    x[20]
 BV bounds    x[21]
 BV bounds    x[22]
 BV bounds    x[23]
 BV bounds    x[24]
 BV bounds    x[25]
 BV bounds    x[26]
 BV bounds    x[27]
 BV bounds    x[28]
 BV bounds    x[29]
 BV bounds    x[30]
 BV bounds    x[31]
 BV bounds    x[32]
 BV bounds    x[33]
 BV bounds    x[34]
 BV bounds    x[35]
 BV bounds    x[36]
 BV bounds    x[37]
 BV bounds    x[38]
 BV bounds    x[39]
 BV bounds    x[40]
 BV bounds    x[41]
 BV bounds    x[42]
 BV bounds    x[43]
 BV bounds    x[44]
 BV bounds    x[45]
 BV bounds    x[46]
 BV bounds    x[47]
 BV bounds    x[48]
 BV bounds    x[49]
 BV bounds    x[50]
 BV bounds    x[51]
 BV bounds    x[52]
 BV bounds    x[53]
 BV bounds    x[54]
 BV bounds    x[55]
 BV bounds    x[56]
 BV bounds    x[57]
 BV bounds    x[58]
 BV bounds    x[59]
 BV bounds    x[60]
 BV bounds    x[61]
 BV bounds    x[62]
 BV bounds    x[63]
 BV bounds    x[64]
 BV bounds    x[65]
 BV bounds    x[66]
 BV bounds    x[67]
 BV bounds    x[68]
 BV bounds    x[69]
 BV bounds    x[70]
ENDATA
